feasible solution found by trivial heuristic after 0.0 seconds, objective value 4.771063e+04
presolving:
(round 1, fast)       2693 del vars, 0 del conss, 0 add conss, 219 chg bounds, 0 chg sides, 219 chg coeffs, 0 upgd conss, 0 impls, 4582 clqs
   (0.1s) running MILP presolver
   (0.1s) MILP presolver (2 rounds): 0 aggregations, 0 fixings, 0 bound changes
(round 2, exhaustive) 2693 del vars, 308 del conss, 0 add conss, 219 chg bounds, 0 chg sides, 219 chg coeffs, 0 upgd conss, 0 impls, 4582 clqs
(round 3, exhaustive) 2693 del vars, 308 del conss, 0 add conss, 219 chg bounds, 0 chg sides, 219 chg coeffs, 7369 upgd conss, 0 impls, 4582 clqs
(round 4, exhaustive) 2693 del vars, 308 del conss, 0 add conss, 219 chg bounds, 0 chg sides, 1234 chg coeffs, 7369 upgd conss, 1772 impls, 4582 clqs
   (0.7s) probing: 64/850 (7.5%) - 0 fixings, 0 aggregations, 960 implications, 0 bound changes
   (0.7s) probing aborted: 50/50 successive totally useless probings
   (0.9s) symmetry computation started: requiring (bin +, int -, cont +), (fixed: bin -, int +, cont -)
   (0.9s) no symmetry present
   (0.9s) symmetry computation started: requiring (bin +, int +, cont +), (fixed: bin -, int -, cont -)
   (0.9s) no symmetry present
presolving (5 rounds: 5 fast, 4 medium, 4 exhaustive):
 2693 deleted vars, 308 deleted constraints, 0 added constraints, 219 tightened bounds, 0 added holes, 0 changed sides, 1234 changed coefficients
 2713 implications, 5478 cliques
presolved problem has 2622 variables (850 bin, 262 int, 0 impl, 1510 cont) and 7671 constraints
   1772 constraints of type <varbound>
   1015 constraints of type <knapsack>
   4582 constraints of type <setppc>
    302 constraints of type <linear>
Presolving Time: 0.90

 time | node  | left  |LP iter|LP it/n|mem/heur|mdpt |vars |cons |rows |cuts |sepa|confs|strbr|  dualbound   | primalbound  |  gap   | compl. 
t 0.9s|     1 |     0 |     0 |     - | trivial|   0 |2622 |7671 |   0 |   0 |  0 |   0 |   0 | 1.202494e+06 | 1.116254e+06 |   7.73%| unknown
i 1.0s|     1 |     0 |     0 |     - |  oneopt|   0 |2622 |7671 |7671 |   0 |  0 |   0 |   0 | 1.202494e+06 | 1.117535e+06 |   7.60%| unknown
  1.4s|     1 |     0 |  4166 |     - |   109M |   0 |2622 |7671 |7671 |   0 |  0 |   0 |   0 | 1.127436e+06 | 1.117535e+06 |   0.89%| unknown
  1.6s|     1 |     0 |  4204 |     - |   115M |   0 |2622 |7672 |7679 |   8 |  1 |   1 |   0 | 1.127289e+06 | 1.117535e+06 |   0.87%| unknown
  1.7s|     1 |     0 |  4233 |     - |   118M |   0 |2622 |7672 |7685 |  14 |  2 |   1 |   0 | 1.127253e+06 | 1.117535e+06 |   0.87%| unknown
  1.8s|     1 |     0 |  4258 |     - |   123M |   0 |2622 |7673 |7687 |  16 |  3 |   2 |   0 | 1.127229e+06 | 1.117535e+06 |   0.87%| unknown
  2.0s|     1 |     0 |  4302 |     - |   126M |   0 |2622 |7673 |7691 |  20 |  4 |   2 |   0 | 1.127179e+06 | 1.117535e+06 |   0.86%| unknown
  2.1s|     1 |     0 |  4326 |     - |   131M |   0 |2622 |7673 |7693 |  22 |  5 |   2 |   0 | 1.127168e+06 | 1.117535e+06 |   0.86%| unknown
  2.2s|     1 |     0 |  4345 |     - |   133M |   0 |2622 |7673 |7695 |  24 |  6 |   2 |   0 | 1.127160e+06 | 1.117535e+06 |   0.86%| unknown
  2.4s|     1 |     0 |  4376 |     - |   138M |   0 |2622 |7673 |7696 |  25 |  7 |   2 |   0 | 1.127145e+06 | 1.117535e+06 |   0.86%| unknown
  2.5s|     1 |     0 |  4403 |     - |   141M |   0 |2622 |7673 |7698 |  27 |  8 |   2 |   0 | 1.127133e+06 | 1.117535e+06 |   0.86%| unknown
  2.7s|     1 |     0 |  4418 |     - |   147M |   0 |2622 |7673 |7700 |  29 |  9 |   2 |   0 | 1.127128e+06 | 1.117535e+06 |   0.86%| unknown
  2.8s|     1 |     0 |  4448 |     - |   151M |   0 |2622 |7673 |7702 |  31 | 10 |   2 |   0 | 1.127108e+06 | 1.117535e+06 |   0.86%| unknown
  2.8s|     1 |     0 |  4457 |     - |   151M |   0 |2622 |7673 |7704 |  33 | 11 |   2 |   0 | 1.127108e+06 | 1.117535e+06 |   0.86%| unknown
  2.9s|     1 |     0 |  4477 |     - |   152M |   0 |2622 |7673 |7705 |  34 | 12 |   2 |   0 | 1.127104e+06 | 1.117535e+06 |   0.86%| unknown
 time | node  | left  |LP iter|LP it/n|mem/heur|mdpt |vars |cons |rows |cuts |sepa|confs|strbr|  dualbound   | primalbound  |  gap   | compl. 
  2.9s|     1 |     0 |  4503 |     - |   153M |   0 |2622 |7673 |7706 |  35 | 13 |   2 |   0 | 1.127101e+06 | 1.117535e+06 |   0.86%| unknown
  3.0s|     1 |     0 |  4526 |     - |   154M |   0 |2622 |7673 |7707 |  36 | 14 |   2 |   0 | 1.127099e+06 | 1.117535e+06 |   0.86%| unknown
  3.0s|     1 |     0 |  4528 |     - |   156M |   0 |2622 |7673 |7709 |  38 | 15 |   2 |   0 | 1.127098e+06 | 1.117535e+06 |   0.86%| unknown
  3.0s|     1 |     0 |  4537 |     - |   157M |   0 |2622 |7673 |7710 |  39 | 16 |   2 |   0 | 1.127096e+06 | 1.117535e+06 |   0.86%| unknown
  3.1s|     1 |     0 |  4556 |     - |   158M |   0 |2622 |7674 |7711 |  40 | 17 |   3 |   0 | 1.127094e+06 | 1.117535e+06 |   0.86%| unknown
  3.1s|     1 |     0 |  4585 |     - |   158M |   0 |2622 |7675 |7713 |  42 | 18 |   4 |   0 | 1.127092e+06 | 1.117535e+06 |   0.86%| unknown
  3.1s|     1 |     0 |  4596 |     - |   159M |   0 |2622 |7676 |7715 |  44 | 19 |   5 |   0 | 1.127091e+06 | 1.117535e+06 |   0.86%| unknown
  3.2s|     1 |     0 |  4617 |     - |   160M |   0 |2622 |7676 |7716 |  45 | 20 |   5 |   0 | 1.127088e+06 | 1.117535e+06 |   0.85%| unknown
  3.2s|     1 |     0 |  4648 |     - |   160M |   0 |2622 |7676 |7717 |  46 | 21 |   5 |   0 | 1.127082e+06 | 1.117535e+06 |   0.85%| unknown
  3.2s|     1 |     0 |  4670 |     - |   160M |   0 |2622 |7676 |7718 |  47 | 22 |   5 |   0 | 1.127080e+06 | 1.117535e+06 |   0.85%| unknown
  3.3s|     1 |     0 |  4684 |     - |   160M |   0 |2622 |7676 |7720 |  49 | 23 |   5 |   0 | 1.127078e+06 | 1.117535e+06 |   0.85%| unknown
  3.3s|     1 |     0 |  4701 |     - |   160M |   0 |2622 |7676 |7721 |  50 | 24 |   5 |   0 | 1.127077e+06 | 1.117535e+06 |   0.85%| unknown
  3.4s|     1 |     0 |  4711 |     - |   161M |   0 |2622 |7677 |7722 |  51 | 25 |   6 |   0 | 1.127075e+06 | 1.117535e+06 |   0.85%| unknown
  3.4s|     1 |     0 |  4723 |     - |   161M |   0 |2622 |7677 |7723 |  52 | 26 |   6 |   0 | 1.127074e+06 | 1.117535e+06 |   0.85%| unknown
d 3.6s|     1 |     0 |  5225 |     - |farkasdi|   0 |2622 |7677 |7723 |   0 | 28 |   6 |   0 | 1.127074e+06 | 1.117899e+06 |   0.82%| unknown
 time | node  | left  |LP iter|LP it/n|mem/heur|mdpt |vars |cons |rows |cuts |sepa|confs|strbr|  dualbound   | primalbound  |  gap   | compl. 
  3.8s|     1 |     0 |  5754 |     - |   162M |   0 |2622 |7678 |7723 |  52 | 28 |   7 |   0 | 1.127074e+06 | 1.117899e+06 |   0.82%| unknown
  3.8s|     1 |     0 |  5757 |     - |   163M |   0 |2622 |7678 |7724 |  53 | 29 |   7 |   0 | 1.127074e+06 | 1.117899e+06 |   0.82%| unknown
  3.8s|     1 |     0 |  5760 |     - |   163M |   0 |2622 |7678 |7725 |  54 | 30 |   7 |   0 | 1.127074e+06 | 1.117899e+06 |   0.82%| unknown
  4.9s|     1 |     2 |  5760 |     - |   164M |   0 |2622 |7678 |7725 |  54 | 30 |   7 |  21 | 1.126913e+06 | 1.117899e+06 |   0.81%| unknown
* 9.5s|     7 |     6 |  6424 | 282.5 |strongbr|   6 |2622 |7677 |7718 |  54 |  2 |   7 | 166 | 1.126854e+06 | 1.121254e+06 |   0.50%| unknown
* 9.8s|     7 |     6 |  6542 | 302.2 |    LP  |   6 |2622 |7681 |7718 |  54 | 11 |  16 | 191 | 1.126854e+06 | 1.121286e+06 |   0.50%| unknown
*11.3s|    12 |     9 |  6774 | 185.9 |    LP  |  10 |2622 |7685 |7718 |  54 |  2 |  24 | 272 | 1.126854e+06 | 1.121290e+06 |   0.50%|   2.22%
*11.3s|    13 |     8 |  6780 | 170.9 |    LP  |  10 |2622 |7685 |7718 |  54 |  2 |  24 | 272 | 1.126854e+06 | 1.121418e+06 |   0.48%|   2.26%
*12.7s|    18 |     8 |  7188 | 144.6 |strongbr|  10 |2622 |7677 |7718 |  54 |  1 |  24 | 319 | 1.126854e+06 | 1.121661e+06 |   0.46%|   2.67%
*12.9s|    19 |     7 |  7229 | 138.9 |    LP  |  10 |2622 |7677 |7718 |  54 |  2 |  24 | 330 | 1.126854e+06 | 1.122113e+06 |   0.42%|   3.10%
*13.0s|    20 |     6 |  7237 | 132.0 |strongbr|  10 |2622 |7677 |7718 |  54 |  2 |  24 | 341 | 1.126854e+06 | 1.122134e+06 |   0.42%|   3.18%
*13.2s|    21 |     7 |  7289 | 128.0 |    LP  |  10 |2622 |7677 |7723 |  59 |  6 |  24 | 346 | 1.126854e+06 | 1.122147e+06 |   0.42%|   3.18%
*13.3s|    22 |     6 |  7317 | 123.2 |    LP  |  10 |2622 |7677 |7722 |  60 |  3 |  24 | 346 | 1.126854e+06 | 1.122157e+06 |   0.42%|   3.21%
*14.0s|    25 |     7 |  7551 | 117.6 |strongbr|  10 |2622 |7677 |7718 |  60 |  2 |  24 | 376 | 1.126854e+06 | 1.123405e+06 |   0.31%|   3.55%
*14.2s|    27 |     7 |  7717 | 114.9 |    LP  |  10 |2622 |7682 |7720 |  62 |  3 |  29 | 385 | 1.126854e+06 | 1.123405e+06 |   0.31%|   4.04%
 time | node  | left  |LP iter|LP it/n|mem/heur|mdpt |vars |cons |rows |cuts |sepa|confs|strbr|  dualbound   | primalbound  |  gap   | compl. 
*14.3s|    28 |     6 |  7742 | 111.6 |    LP  |  10 |2622 |7682 |7722 |  65 |  3 |  29 | 385 | 1.126854e+06 | 1.123476e+06 |   0.30%|   4.07%
*15.1s|    30 |     6 |  7872 | 108.4 |strongbr|  10 |2622 |7677 |7719 |  65 |  2 |  29 | 411 | 1.126854e+06 | 1.124646e+06 |   0.20%|   4.11%
*15.1s|    30 |     6 |  7942 | 110.8 |    LP  |  10 |2622 |7677 |7719 |  65 |  5 |  29 | 415 | 1.126854e+06 | 1.124670e+06 |   0.19%|   4.11%
*20.1s|    50 |     4 |  9836 | 104.2 |strongbr|  10 |2622 |7686 |7718 |  65 |  4 |  50 | 607 | 1.126854e+06 | 1.124691e+06 |   0.19%|  21.60%
*21.6s|    54 |     4 | 10414 | 107.3 |strongbr|  10 |2622 |7686 |7718 |  65 |  1 |  50 | 662 | 1.126789e+06 | 1.124802e+06 |   0.18%|  26.76%
*21.9s|    55 |     5 | 10538 | 107.6 |    LP  |  10 |2622 |7686 |7718 |  65 |  4 |  50 | 684 | 1.126789e+06 | 1.124881e+06 |   0.17%|  26.76%
*24.5s|    69 |     5 | 11831 | 104.4 |strongbr|  10 |2622 |7678 |7718 |  65 |  2 |  75 | 782 | 1.126598e+06 | 1.125635e+06 |   0.09%|  40.25%
*27.2s|    87 |     7 | 13169 |  98.1 |strongbr|  10 |2622 |7681 |7732 |  86 |  8 |  85 | 868 | 1.126489e+06 | 1.125782e+06 |   0.06%|  48.79%
 28.6s|   100 |     4 | 14065 |  94.3 |   189M |  10 |2622 |7666 |7718 |  86 |  6 |  95 | 930 | 1.126290e+06 | 1.125782e+06 |   0.05%|  71.05%

SCIP Status        : problem is solved [optimal solution found]
Solving Time (sec) : 29.51
Solving Nodes      : 120
Primal Bound       : +1.12578215244757e+06 (72 solutions)
Dual Bound         : +1.12578215244757e+06
Gap                : 0.00 %
Solve Status: optimal
Solve Time: 29.51 seconds
